instances/ampl_instances/ss_inst_8b_94n.dat
param set_len = 94;
param target := 5440;
set values := 204, 10, 139, 238, 81, 91, 73, 109, 144, 208, 154, 242, 201, 89, 153, 67, 124, 84, 99, 157, 65, 173, 140, 178, 222, 48, 235, 82, 67, 185, 84, 31, 185, 139, 229, 251, 179, 125, 222, 240, 111, 109, 89, 52, 4, 208, 89, 40, 85, 221, 196, 251, 71, 131, 27, 69, 188, 49, 16, 148, 40, 67, 202, 148, 3, 129, 188, 33, 36, 119, 36, 235, 26, 101, 84, 42, 32, 132, 176, 62, 243, 190, 16, 0, 94, 124, 23, 94, 55, 130, 236, 0, 254, 61, ;
