Project4/outputs/ilp_integrality_fix/ss_inst_8b_94n.out
_solve_elapsed_time = 0.809628

calculated_sum = 5440

target_sum = 5440

set_len = 94

x [*] :=
 1 1   10 1   19 0   28 0   37 0   46 1   55 0   64 0   73 0   82 1   91 1
 2 0   11 0   20 0   29 0   38 0   47 0   56 0   65 1   74 0   83 0   92 0
 3 0   12 1   21 0   30 1   39 1   48 0   57 1   66 0   75 0   84 0   93 1
 4 1   13 1   22 0   31 0   40 1   49 0   58 0   67 1   76 0   85 0   94 0
 5 0   14 0   23 0   32 0   41 0   50 1   59 0   68 0   77 0   86 0
 6 0   15 0   24 0   33 0   42 0   51 1   60 1   69 0   78 0   87 0
 7 0   16 0   25 1   34 0   43 0   52 1   61 0   70 0   79 0   88 0
 8 0   17 0   26 0   35 1   44 0   53 0   62 0   71 0   80 0   89 0
 9 0   18 0   27 1   36 1   45 0   54 0   63 1   72 1   81 1   90 0
;

